100 8
837 750
797 787
104 843
469 758
811 385
716 677
941 703
273 135
573 879
301 688
809 842
494 711
668 219
461 652
513 423
559 439
935 842
302 690
184 553
624 363
744 188
326 672
378 613
209 388
51 887
727 341
636 771
731 92
847 415
506 404
335 501
525 349
695 788
459 662
320 604
527 340
924 386
632 187
610 584
871 286
55 805
100 378
752 292
373 481
683 800
511 763
621 244
662 233
627 765
183 764
473 339
462 673
894 801
451 814
453 274
283 600
685 198
556 883
306 684
305 434
771 228
582 570
418 564
589 759
670 131
229 744
127 906
119 829
162 476
850 804
485 590
794 793
560 676
647 451
365 610
155 774
477 470
526 474
434 567
495 762
233 520
413 557
718 787
423 712
778 744
734 131
665 231
435 700
488 338
884 833
99 488
569 631
166 764
490 306
753 398
788 190
271 733
876 798
264 505
480 887
